x =  30;
y =  30;
c = 73;

n =  17;

// Let's index products with letters: A, B, C, ...

//     A   B   C   D   E   F   G   H   I   J   K   L   M   N   O   P   Q
p = [  5   6   4   3   7   6   3   4   8   6   6   2   6   4   4   5   3  ];
w = [  9   8   4   6   8   6   5   5   6   6   3   3   5   3   4   3   6  ];
s = [  15   15   15   9   9   9   9   7   7   7   7   7   5   3   2   1   1  ];
